10
0 0 0
0 1 907
0 2 661
0 3 679
0 4 534
0 5 572
0 6 863
0 7 990
0 8 752
0 9 8
1 0 377
1 1 0
1 2 742
1 3 730
1 4 675
1 5 326
1 6 748
1 7 612
1 8 107
1 9 12
2 0 68
2 1 580
2 2 0
2 3 707
2 4 655
2 5 55
2 6 31
2 7 361
2 8 422
2 9 879
3 0 855
3 1 775
3 2 368
3 3 0
3 4 731
3 5 751
3 6 822
3 7 130
3 8 931
3 9 938
4 0 65
4 1 86
4 2 221
4 3 343
4 4 0
4 5 73
4 6 458
4 7 552
4 8 303
4 9 101
5 0 325
5 1 827
5 2 119
5 3 188
5 4 778
5 5 0
5 6 161
5 7 308
5 8 775
5 9 547
6 0 390
6 1 278
6 2 471
6 3 235
6 4 777
6 5 204
6 6 0
6 7 714
6 8 955
6 9 56
7 0 323
7 1 658
7 2 545
7 3 257
7 4 523
7 5 799
7 6 746
7 7 0
7 8 996
7 9 28
8 0 515
8 1 691
8 2 283
8 3 268
8 4 902
8 5 790
8 6 216
8 7 499
8 8 0
8 9 49
9 0 651
9 1 339
9 2 541
9 3 162
9 4 977
9 5 833
9 6 111
9 7 738
9 8 473
9 9 0